17	4
26	21	25	21	
0	0	0	0	0	3	2	3	4	
2	3	0	0	3	1	17	
9	6	5	10	1	1	9	
8	7	9	6	4	2	5	13	
6	9	1	9	8	3	6	7	17	
50	5	3	2	0	3	10	14	17	
75	0	1	9	7	3	8	17	17	
225	5	1	10	3	3	11	12	15	
225	5	0	7	2	2	10	17	
100	7	5	3	6	3	15	17	17	
150	0	8	7	10	2	17	17	
125	10	6	10	9	1	17	
10	4	2	4	10	2	17	17	
8	10	4	3	8	2	16	17	
2	3	5	3	0	1	17	
9	6	5	2	0	2	17	17	
0	0	0	0	0	0	
